NAME : darwin-demo-3c
COMMENT : (Optimal value: 54)
TYPE : CVRP
DIMENSION : 4
EDGE_WEIGHT_TYPE : EUC_2D
CAPACITY : 10
NODE_COORD_SECTION
1 0 0
2 10 0
3 0 10
4 10 10
DEMAND_SECTION
1 0
2 5
3 5
4 5
DEPOT_SECTION
1
-1
EOF
